56
301 -100
4661 -2201
6846 7250
4137 2128
1962 4792
9870 7021
7542 -7899
-9908 4863
-9146 -4028
7560 -6651
-1061 3092
-8214 -1086
-9126 9482
-192 -8780
-1434 -2920
9153 229
-1554 1430
3142 5075
3177 8773
688 -7459
5740 -9691
-9029 1045
-9985 6630
-2355 8885
6668 9360
3847 -6120
1794 9524
-4024 8252
7052 -719
-8261 -4336
-6394 -6460
-7821 4081
-99 -8980
-5131 5612
-182 -8761
1984 -279
-1088 -8284
-492 -7808
-3595 3066
-6565 -9676
-7047 9814
-2636 -5544
3010 -121
-3718 -7172
-3471 -5276
6677 4915
5114 446
-120 5597
6203 -7930
-3368 -5134
-442 -3596
4162 4581
-7777 9367
-5431 3826
2721 3003
7948 1637
